p tw 168 466
0 1
0 2
0 3
0 141
0 166
1 2
1 3
1 74
1 75
1 76
2 3
2 45
2 46
3 42
3 43
3 44
4 5
4 20
4 70
5 134
5 137
6 7
6 31
6 106
7 30
7 116
7 118
8 9
8 10
8 11
8 27
8 80
8 110
8 122
8 138
9 10
9 11
9 99
9 101
10 11
10 29
10 130
11 12
11 13
12 13
12 27
12 28
12 29
13 113
13 122
13 123
14 15
14 99
14 100
15 101
15 116
15 117
16 17
16 18
16 61
16 112
16 127
17 18
17 62
17 111
17 128
18 64
18 114
18 115
19 20
19 21
19 22
19 23
19 140
19 142
20 21
20 22
20 23
20 70
21 22
21 23
21 148
21 149
22 23
22 88
22 89
23 69
23 132
23 157
23 159
23 162
23 163
24 25
24 26
24 52
24 79
24 98
25 26
25 109
25 123
26 55
26 82
27 28
27 29
27 80
27 110
27 122
27 138
28 29
28 81
28 146
28 163
29 130
30 31
30 32
30 116
30 118
31 32
31 106
32 100
32 117
32 150
33 34
33 36
33 124
34 35
34 98
34 125
35 36
35 37
35 98
35 125
36 37
36 124
37 126
38 39
38 40
38 41
38 120
38 142
39 40
39 41
39 56
39 57
39 58
39 59
39 60
40 41
40 66
40 164
40 165
41 73
41 121
42 43
42 44
42 45
42 76
42 139
43 44
43 70
43 140
44 46
44 153
45 46
45 76
45 139
46 153
47 48
47 49
47 50
47 51
47 59
47 94
47 115
47 156
47 164
48 49
48 50
48 51
48 60
48 165
48 167
49 50
49 51
49 95
49 96
50 51
50 61
50 62
50 63
50 64
50 65
50 66
51 145
51 161
52 53
52 54
52 55
52 79
52 98
53 54
53 55
53 67
53 68
53 69
54 55
54 124
54 125
54 126
55 82
56 57
56 58
56 59
56 60
56 119
56 120
56 121
57 58
57 59
57 60
57 77
57 78
58 59
58 60
58 71
58 72
58 73
59 60
59 94
59 115
59 156
59 164
60 165
60 167
61 62
61 63
61 64
61 65
61 66
61 112
61 127
62 63
62 64
62 65
62 66
62 111
62 128
63 64
63 65
63 66
63 161
64 65
64 66
64 114
64 115
65 66
65 85
65 96
65 144
65 145
66 164
66 165
67 68
67 69
67 79
67 80
67 81
67 82
67 83
68 69
68 131
68 158
69 132
69 157
69 159
69 162
69 163
70 140
71 72
71 73
71 77
71 107
72 73
72 78
73 121
74 75
74 76
74 166
75 76
75 119
75 141
76 139
77 78
77 107
79 80
79 81
79 82
79 83
79 98
80 81
80 82
80 83
80 110
80 122
80 138
81 82
81 83
81 146
81 163
82 83
83 88
83 147
83 148
83 162
84 85
84 86
84 87
85 86
85 96
85 144
85 145
86 90
86 91
87 111
87 112
88 89
88 147
88 148
88 162
89 159
90 91
90 106
90 118
90 150
91 130
91 144
92 93
92 94
92 107
92 154
93 94
93 114
93 151
93 155
94 115
94 156
94 164
95 96
95 97
96 144
96 145
97 138
97 146
97 147
98 125
99 100
99 101
100 117
100 150
101 116
101 117
102 103
102 104
102 105
102 135
102 160
103 104
103 105
103 129
104 105
104 154
104 155
104 156
105 136
105 151
105 152
106 118
106 150
107 154
108 109
108 110
108 113
109 110
109 123
110 122
110 138
111 112
111 128
112 127
113 122
113 123
114 115
114 151
114 155
115 156
115 164
116 117
116 118
117 150
118 150
119 120
119 121
119 141
120 121
120 142
122 123
122 138
124 125
124 126
125 126
127 128
129 152
129 160
130 144
131 132
131 133
131 134
131 158
132 133
132 134
132 157
132 159
132 162
132 163
133 134
133 143
134 137
135 136
135 160
136 151
136 152
137 143
137 157
137 158
138 146
138 147
139 153
140 142
141 166
143 157
143 158
144 145
145 161
146 147
146 163
147 148
147 162
148 149
148 162
149 167
151 152
151 155
152 160
154 155
154 156
155 156
156 164
157 158
157 159
157 162
157 163
159 162
159 163
162 163
164 165
165 167
